(set-logic QF_UF)
(declare-fun A0 () Bool)
(declare-fun A1 () Bool)
(declare-fun A2 () Bool)
(declare-fun A3 () Bool)
(declare-fun A4 () Bool)
(declare-fun A5 () Bool)
(declare-fun A6 () Bool)
(declare-fun A7 () Bool)
(declare-fun A8 () Bool)
(declare-fun A9 () Bool)
(declare-fun A10 () Bool)
(declare-fun A11 () Bool)
(declare-fun A12 () Bool)
(declare-fun A13 () Bool)
(declare-fun A14 () Bool)
(declare-fun A15 () Bool)
(declare-fun A16 () Bool)
(declare-fun A17 () Bool)
(declare-fun A18 () Bool)
(declare-fun A19 () Bool)
(declare-fun A20 () Bool)
(declare-fun A21 () Bool)
(declare-fun A22 () Bool)
(declare-fun A23 () Bool)
(declare-fun A24 () Bool)
(assert (let ((.def_0 (not A15))) (let ((.def_1 (and .def_0 A24))) (let ((.def_2 (or A15 A5))) (let ((.def_3 (not .def_2))) (let ((.def_4 (= .def_3 .def_1))) (let ((.def_5 (not .def_4))) (let ((.def_6 (= A23 A24))) (let ((.def_7 (not .def_6))) (let ((.def_8 (not A4))) (let ((.def_9 (or .def_8 A8))) (let ((.def_10 (not .def_9))) (let ((.def_11 (and .def_10 .def_7))) (let ((.def_12 (or .def_11 .def_5))) (let ((.def_13 (not A2))) (let ((.def_14 (or .def_13 A16))) (let ((.def_15 (not A9))) (let ((.def_16 (or A2 .def_15))) (let ((.def_17 (= .def_16 .def_14))) (let ((.def_18 (not .def_17))) (let ((.def_19 (not A17))) (let ((.def_20 (= A8 .def_19))) (let ((.def_21 (not .def_20))) (let ((.def_22 (not A12))) (let ((.def_23 (not A6))) (let ((.def_24 (and .def_23 .def_22))) (let ((.def_25 (or .def_24 .def_21))) (let ((.def_26 (not .def_25))) (let ((.def_27 (and .def_26 .def_18))) (let ((.def_28 (not .def_27))) (let ((.def_29 (and .def_28 .def_12))) (let ((.def_30 (not .def_29))) (let ((.def_31 (and A23 A14))) (let ((.def_32 (not .def_31))) (let ((.def_33 (or A4 A13))) (let ((.def_34 (not .def_33))) (let ((.def_35 (or .def_34 .def_32))) (let ((.def_36 (not .def_35))) (let ((.def_37 (not A7))) (let ((.def_38 (and A18 .def_37))) (let ((.def_39 (not .def_38))) (let ((.def_40 (not A13))) (let ((.def_41 (or A18 .def_40))) (let ((.def_42 (not .def_41))) (let ((.def_43 (or .def_42 .def_39))) (let ((.def_44 (and .def_43 .def_36))) (let ((.def_45 (not .def_44))) (let ((.def_46 (not A14))) (let ((.def_47 (and .def_13 .def_46))) (let ((.def_48 (not .def_47))) (let ((.def_49 (not A24))) (let ((.def_50 (not A20))) (let ((.def_51 (and .def_50 .def_49))) (let ((.def_52 (not .def_51))) (let ((.def_53 (or .def_52 .def_48))) (let ((.def_54 (and A22 A6))) (let ((.def_55 (or A11 A24))) (let ((.def_56 (not .def_55))) (let ((.def_57 (and .def_56 .def_54))) (let ((.def_58 (and .def_57 .def_53))) (let ((.def_59 (not .def_58))) (let ((.def_60 (and .def_59 .def_45))) (let ((.def_61 (or .def_60 .def_30))) (let ((.def_62 (not A8))) (let ((.def_63 (and .def_62 A11))) (let ((.def_64 (or A22 A14))) (let ((.def_65 (= .def_64 .def_63))) (let ((.def_66 (not .def_65))) (let ((.def_67 (not A1))) (let ((.def_68 (or .def_67 A22))) (let ((.def_69 (not .def_68))) (let ((.def_70 (or A20 .def_49))) (let ((.def_71 (= .def_70 .def_69))) (let ((.def_72 (and .def_71 .def_66))) (let ((.def_73 (or .def_67 A1))) (let ((.def_74 (not A0))) (let ((.def_75 (or A22 .def_74))) (let ((.def_76 (= .def_75 .def_73))) (let ((.def_77 (not .def_76))) (let ((.def_78 (not A21))) (let ((.def_79 (and A10 .def_78))) (let ((.def_80 (= .def_40 A15))) (let ((.def_81 (not .def_80))) (let ((.def_82 (and .def_81 .def_79))) (let ((.def_83 (or .def_82 .def_77))) (let ((.def_84 (or .def_83 .def_72))) (let ((.def_85 (and A2 .def_0))) (let ((.def_86 (= .def_37 .def_13))) (let ((.def_87 (not .def_86))) (let ((.def_88 (and .def_87 .def_85))) (let ((.def_89 (not .def_88))) (let ((.def_90 (not A16))) (let ((.def_91 (and .def_90 A22))) (let ((.def_92 (not .def_91))) (let ((.def_93 (or A9 A8))) (let ((.def_94 (or .def_93 .def_92))) (let ((.def_95 (not .def_94))) (let ((.def_96 (and .def_95 .def_89))) (let ((.def_97 (not A23))) (let ((.def_98 (or .def_97 A23))) (let ((.def_99 (and A23 A5))) (let ((.def_100 (not .def_99))) (let ((.def_101 (and .def_100 .def_98))) (let ((.def_102 (not .def_101))) (let ((.def_103 (or .def_8 A19))) (let ((.def_104 (not .def_103))) (let ((.def_105 (and .def_37 A23))) (let ((.def_106 (and .def_105 .def_104))) (let ((.def_107 (not .def_106))) (let ((.def_108 (or .def_107 .def_102))) (let ((.def_109 (not .def_108))) (let ((.def_110 (or .def_109 .def_96))) (let ((.def_111 (not .def_110))) (let ((.def_112 (= .def_111 .def_84))) (let ((.def_113 (or .def_112 .def_61))) (let ((.def_114 (not A22))) (let ((.def_115 (or .def_114 .def_23))) (let ((.def_116 (or .def_40 .def_15))) (let ((.def_117 (= .def_116 .def_115))) (let ((.def_118 (or A12 A4))) (let ((.def_119 (not .def_118))) (let ((.def_120 (and .def_50 .def_0))) (let ((.def_121 (not .def_120))) (let ((.def_122 (and .def_121 .def_119))) (let ((.def_123 (and .def_122 .def_117))) (let ((.def_124 (or A15 .def_22))) (let ((.def_125 (or A14 A4))) (let ((.def_126 (and .def_125 .def_124))) (let ((.def_127 (not .def_126))) (let ((.def_128 (or A7 .def_22))) (let ((.def_129 (or A8 .def_97))) (let ((.def_130 (and .def_129 .def_128))) (let ((.def_131 (or .def_130 .def_127))) (let ((.def_132 (or .def_131 .def_123))) (let ((.def_133 (not A3))) (let ((.def_134 (and A18 .def_133))) (let ((.def_135 (and A15 A15))) (let ((.def_136 (not .def_135))) (let ((.def_137 (or .def_136 .def_134))) (let ((.def_138 (or .def_37 .def_78))) (let ((.def_139 (= A18 A17))) (let ((.def_140 (and .def_139 .def_138))) (let ((.def_141 (not .def_140))) (let ((.def_142 (and .def_141 .def_137))) (let ((.def_143 (and A18 .def_74))) (let ((.def_144 (or A0 A6))) (let ((.def_145 (and .def_144 .def_143))) (let ((.def_146 (not .def_145))) (let ((.def_147 (or A11 A17))) (let ((.def_148 (and .def_133 A20))) (let ((.def_149 (and .def_148 .def_147))) (let ((.def_150 (not .def_149))) (let ((.def_151 (or .def_150 .def_146))) (let ((.def_152 (= .def_151 .def_142))) (let ((.def_153 (or .def_152 .def_132))) (let ((.def_154 (not .def_153))) (let ((.def_155 (and .def_50 A17))) (let ((.def_156 (not .def_155))) (let ((.def_157 (and .def_97 .def_133))) (let ((.def_158 (and .def_157 .def_156))) (let ((.def_159 (not .def_158))) (let ((.def_160 (and .def_23 A20))) (let ((.def_161 (and A23 A6))) (let ((.def_162 (or .def_161 .def_160))) (let ((.def_163 (and .def_162 .def_159))) (let ((.def_164 (not .def_163))) (let ((.def_165 (and .def_78 .def_62))) (let ((.def_166 (not .def_165))) (let ((.def_167 (= A16 A6))) (let ((.def_168 (not .def_167))) (let ((.def_169 (or .def_168 .def_166))) (let ((.def_170 (and A22 A22))) (let ((.def_171 (or .def_23 .def_8))) (let ((.def_172 (not .def_171))) (let ((.def_173 (= .def_172 .def_170))) (let ((.def_174 (not .def_173))) (let ((.def_175 (or .def_174 .def_169))) (let ((.def_176 (and .def_175 .def_164))) (let ((.def_177 (or .def_67 .def_8))) (let ((.def_178 (not .def_177))) (let ((.def_179 (or A10 A10))) (let ((.def_180 (and .def_179 .def_178))) (let ((.def_181 (not .def_180))) (let ((.def_182 (and A5 .def_19))) (let ((.def_183 (not .def_182))) (let ((.def_184 (not A11))) (let ((.def_185 (= A11 .def_184))) (let ((.def_186 (not .def_185))) (let ((.def_187 (or .def_186 .def_183))) (let ((.def_188 (and .def_187 .def_181))) (let ((.def_189 (not .def_188))) (let ((.def_190 (and .def_22 .def_62))) (let ((.def_191 (or A22 A19))) (let ((.def_192 (not .def_191))) (let ((.def_193 (and .def_192 .def_190))) (let ((.def_194 (or .def_133 A24))) (let ((.def_195 (not .def_194))) (let ((.def_196 (or A6 A14))) (let ((.def_197 (and .def_196 .def_195))) (let ((.def_198 (and .def_197 .def_193))) (let ((.def_199 (not .def_198))) (let ((.def_200 (or .def_199 .def_189))) (let ((.def_201 (not .def_200))) (let ((.def_202 (or .def_201 .def_176))) (let ((.def_203 (and .def_202 .def_154))) (let ((.def_204 (not .def_203))) (let ((.def_205 (or .def_204 .def_113))) (let ((.def_206 (and A14 A14))) (let ((.def_207 (or A1 .def_90))) (let ((.def_208 (= .def_207 .def_206))) (let ((.def_209 (or A18 A2))) (let ((.def_210 (or .def_8 A9))) (let ((.def_211 (and .def_210 .def_209))) (let ((.def_212 (not .def_211))) (let ((.def_213 (and .def_212 .def_208))) (let ((.def_214 (not .def_213))) (let ((.def_215 (and A4 .def_46))) (let ((.def_216 (= A0 .def_90))) (let ((.def_217 (not .def_216))) (let ((.def_218 (or .def_217 .def_215))) (let ((.def_219 (not .def_218))) (let ((.def_220 (or A8 .def_133))) (let ((.def_221 (not .def_220))) (let ((.def_222 (= A15 .def_67))) (let ((.def_223 (or .def_222 .def_221))) (let ((.def_224 (not .def_223))) (let ((.def_225 (or .def_224 .def_219))) (let ((.def_226 (or .def_225 .def_214))) (let ((.def_227 (or A1 .def_0))) (let ((.def_228 (and .def_227 .def_128))) (let ((.def_229 (not .def_228))) (let ((.def_230 (or .def_49 A8))) (let ((.def_231 (not .def_230))) (let ((.def_232 (and A21 .def_50))) (let ((.def_233 (and .def_232 .def_231))) (let ((.def_234 (not .def_233))) (let ((.def_235 (or .def_234 .def_229))) (let ((.def_236 (and .def_62 .def_40))) (let ((.def_237 (not .def_236))) (let ((.def_238 (and .def_195 .def_237))) (let ((.def_239 (not A5))) (let ((.def_240 (= A24 .def_239))) (let ((.def_241 (not .def_240))) (let ((.def_242 (or A16 .def_90))) (let ((.def_243 (and .def_242 .def_241))) (let ((.def_244 (not .def_243))) (let ((.def_245 (= .def_244 .def_238))) (let ((.def_246 (or .def_245 .def_235))) (let ((.def_247 (or .def_246 .def_226))) (let ((.def_248 (not .def_247))) (let ((.def_249 (or .def_13 A24))) (let ((.def_250 (not .def_249))) (let ((.def_251 (and .def_67 .def_22))) (let ((.def_252 (= .def_251 .def_250))) (let ((.def_253 (= .def_15 A0))) (let ((.def_254 (not A10))) (let ((.def_255 (or .def_254 A4))) (let ((.def_256 (and .def_255 .def_253))) (let ((.def_257 (and .def_256 .def_252))) (let ((.def_258 (not A19))) (let ((.def_259 (and .def_258 .def_15))) (let ((.def_260 (not .def_259))) (let ((.def_261 (or .def_254 A16))) (let ((.def_262 (not .def_261))) (let ((.def_263 (or .def_262 .def_260))) (let ((.def_264 (not .def_263))) (let ((.def_265 (or A7 A12))) (let ((.def_266 (not .def_265))) (let ((.def_267 (or .def_74 .def_46))) (let ((.def_268 (not .def_267))) (let ((.def_269 (= .def_268 .def_266))) (let ((.def_270 (and .def_269 .def_264))) (let ((.def_271 (not .def_270))) (let ((.def_272 (or .def_271 .def_257))) (let ((.def_273 (not .def_272))) (let ((.def_274 (or A8 A18))) (let ((.def_275 (not .def_274))) (let ((.def_276 (and .def_37 .def_50))) (let ((.def_277 (and .def_276 .def_275))) (let ((.def_278 (= .def_254 A12))) (let ((.def_279 (and A15 A24))) (let ((.def_280 (not .def_279))) (let ((.def_281 (and .def_280 .def_278))) (let ((.def_282 (and .def_281 .def_277))) (let ((.def_283 (not .def_282))) (let ((.def_284 (and A18 .def_15))) (let ((.def_285 (and A12 A2))) (let ((.def_286 (= .def_285 .def_284))) (let ((.def_287 (and A15 A20))) (let ((.def_288 (and .def_90 .def_74))) (let ((.def_289 (or .def_288 .def_287))) (let ((.def_290 (or .def_289 .def_286))) (let ((.def_291 (not .def_290))) (let ((.def_292 (and .def_291 .def_283))) (let ((.def_293 (or .def_292 .def_273))) (let ((.def_294 (not .def_293))) (let ((.def_295 (or .def_294 .def_248))) (let ((.def_296 (= .def_184 A17))) (let ((.def_297 (or A24 A4))) (let ((.def_298 (or .def_297 .def_296))) (let ((.def_299 (and .def_67 A17))) (let ((.def_300 (not .def_299))) (let ((.def_301 (or .def_78 A15))) (let ((.def_302 (not .def_301))) (let ((.def_303 (and .def_302 .def_300))) (let ((.def_304 (not .def_303))) (let ((.def_305 (= .def_304 .def_298))) (let ((.def_306 (not .def_305))) (let ((.def_307 (or .def_239 A12))) (let ((.def_308 (or A13 .def_0))) (let ((.def_309 (or .def_308 .def_307))) (let ((.def_310 (not .def_309))) (let ((.def_311 (or A5 .def_23))) (let ((.def_312 (not .def_311))) (let ((.def_313 (and A13 .def_8))) (let ((.def_314 (not .def_313))) (let ((.def_315 (and .def_314 .def_312))) (let ((.def_316 (or .def_315 .def_310))) (let ((.def_317 (or .def_316 .def_306))) (let ((.def_318 (and A9 A12))) (let ((.def_319 (or .def_318 .def_284))) (let ((.def_320 (or A2 .def_78))) (let ((.def_321 (or .def_254 A11))) (let ((.def_322 (not .def_321))) (let ((.def_323 (or .def_322 .def_320))) (let ((.def_324 (not .def_323))) (let ((.def_325 (or .def_324 .def_319))) (let ((.def_326 (not .def_325))) (let ((.def_327 (= A6 .def_258))) (let ((.def_328 (not .def_327))) (let ((.def_329 (not A18))) (let ((.def_330 (or .def_329 .def_329))) (let ((.def_331 (not .def_330))) (let ((.def_332 (or .def_331 .def_328))) (let ((.def_333 (or A3 .def_74))) (let ((.def_334 (not .def_333))) (let ((.def_335 (and A23 A18))) (let ((.def_336 (or .def_335 .def_334))) (let ((.def_337 (or .def_336 .def_332))) (let ((.def_338 (not .def_337))) (let ((.def_339 (and .def_338 .def_326))) (let ((.def_340 (not .def_339))) (let ((.def_341 (or .def_340 .def_317))) (let ((.def_342 (and A1 .def_40))) (let ((.def_343 (not .def_342))) (let ((.def_344 (and .def_209 .def_343))) (let ((.def_345 (not .def_344))) (let ((.def_346 (or .def_19 .def_67))) (let ((.def_347 (and .def_239 A18))) (let ((.def_348 (not .def_347))) (let ((.def_349 (and .def_348 .def_346))) (let ((.def_350 (or .def_349 .def_345))) (let ((.def_351 (not .def_350))) (let ((.def_352 (and .def_37 .def_97))) (let ((.def_353 (or .def_23 A20))) (let ((.def_354 (or .def_353 .def_352))) (let ((.def_355 (not .def_354))) (let ((.def_356 (or A0 A24))) (let ((.def_357 (or .def_329 A20))) (let ((.def_358 (or .def_357 .def_356))) (let ((.def_359 (not .def_358))) (let ((.def_360 (and .def_359 .def_355))) (let ((.def_361 (and .def_360 .def_351))) (let ((.def_362 (and A14 A24))) (let ((.def_363 (not .def_362))) (let ((.def_364 (and A22 .def_46))) (let ((.def_365 (not .def_364))) (let ((.def_366 (and .def_365 .def_363))) (let ((.def_367 (= A22 A8))) (let ((.def_368 (not .def_367))) (let ((.def_369 (and .def_62 .def_239))) (let ((.def_370 (not .def_369))) (let ((.def_371 (and .def_370 .def_368))) (let ((.def_372 (not .def_371))) (let ((.def_373 (and .def_372 .def_366))) (let ((.def_374 (not .def_373))) (let ((.def_375 (= A2 A7))) (let ((.def_376 (not .def_375))) (let ((.def_377 (and .def_239 A5))) (let ((.def_378 (or .def_377 .def_376))) (let ((.def_379 (not .def_378))) (let ((.def_380 (or A0 A0))) (let ((.def_381 (or A2 A16))) (let ((.def_382 (not .def_381))) (let ((.def_383 (or .def_382 .def_380))) (let ((.def_384 (not .def_383))) (let ((.def_385 (or .def_384 .def_379))) (let ((.def_386 (and .def_385 .def_374))) (let ((.def_387 (and .def_386 .def_361))) (let ((.def_388 (not .def_387))) (let ((.def_389 (and .def_388 .def_341))) (let ((.def_390 (or .def_389 .def_295))) (let ((.def_391 (not .def_390))) (let ((.def_392 (or .def_391 .def_205))) .def_392))))))))))))))))))))))))))))))))))))))))))))))))))))))))))))))))))))))))))))))))))))))))))))))))))))))))))))))))))))))))))))))))))))))))))))))))))))))))))))))))))))))))))))))))))))))))))))))))))))))))))))))))))))))))))))))))))))))))))))))))))))))))))))))))))))))))))))))))))))))))))))))))))))))))))))))))))))))))))))))))))))))))))))))))))))))))))))))))))))))))))))))))))))))))))))))))))))))))))
(check-sat)
